c Random generated cnf formula, satisfiable: true
p cnf 10 50
9 6 7 0
-9 -7 1 0
9 10 1 0
4 9 -10 0
-4 2 -1 0
10 2 9 0
4 7 -10 0
-7 6 2 0
10 1 -7 0
-1 -9 -3 0
-5 -10 -1 0
-1 -9 -3 0
5 6 10 0
-3 -8 5 0
-8 -5 3 0
-5 -9 -3 0
7 4 6 0
-3 -2 8 0
-10 7 -5 0
-9 8 -4 0
-5 -6 -3 0
-1 -2 4 0
3 1 -5 0
-10 5 8 0
6 -10 4 0
6 -4 -1 0
-1 -4 10 0
1 -9 -5 0
-4 -1 7 0
-5 -7 10 0
1 10 -8 0
-2 3 7 0
4 -5 -6 0
-1 -7 -4 0
-1 8 -2 0
3 1 5 0
-5 -2 4 0
4 -6 -5 0
3 8 10 0
10 5 9 0
8 -3 2 0
-6 4 -7 0
-8 -10 -1 0
2 -5 4 0
-8 -6 -1 0
-7 -5 2 0
7 2 9 0
9 4 -10 0
2 4 -10 0
1 8 7 0
